fcc (100) surface
 3.53
   .50000   .50000   .00000
  -.50000   .50000   .00000
   .00000   .00000  5.00000
Ni
  5
Selective Dynamics
Cartesian
   .00000   .00000   .00000 F F F
   .00000   .50000   .50000 F F F
   .00000   .00000  1.00000 F F F
   .00000   .50000  1.50000 T T T
   .00000   .00000  2.00000 T T T
